c FILE /home/rafael/Documents/HappySet/MIHS/inputs/happygen/output/graph_d_regular_k5_p0.3_v50_20241127_082631.txt
c SOURCE This is a d-regular graph formed for the happy graph colouring problem.
c DESCRIPTION It was generated using the problem generator of Rhyd Lewis
c
c GRAPH STATS
c Seed                             = 1857365920
c Number of Nodes                  = 50
c Number of colours k              = 5
c Number of pre-assignments        = 15
c Degree of all vertices           = 6
c Density                          = 0.122449
c 
c The degrees of nodes 1 to 50, respectively, are as follows 
c [6, 6, 6, 6, 6, 6, 6, 6, 6, 6, 6, 6, 6, 6, 6, 6, 6, 6, 6, 6, 6, 6, 6, 6, 6, 6, 
c  6, 6, 6, 6, 6, 6, 6, 6, 6, 6, 6, 6, 6, 6, 6, 6, 6, 6, 6, 6, 6, 6, 6, 6] 
c  
p edge 50 150 5
e 1 5
e 1 8
e 1 11
e 1 28
e 1 41
e 1 48
e 2 4
e 2 6
e 2 29
e 2 31
e 2 40
e 2 50
e 3 9
e 3 13
e 3 24
e 3 30
e 3 34
e 3 38
e 4 8
e 4 24
e 4 26
e 4 43
e 4 49
e 5 28
e 5 34
e 5 43
e 5 44
e 5 47
e 6 18
e 6 24
e 6 35
e 6 38
e 6 41
e 7 19
e 7 24
e 7 27
e 7 31
e 7 33
e 7 49
e 8 9
e 8 28
e 8 34
e 8 40
e 9 11
e 9 29
e 9 39
e 9 40
e 10 16
e 10 26
e 10 30
e 10 31
e 10 32
e 10 33
e 11 15
e 11 23
e 11 27
e 11 40
e 12 17
e 12 20
e 12 27
e 12 39
e 12 48
e 12 50
e 13 25
e 13 35
e 13 36
e 13 45
e 13 46
e 14 15
e 14 17
e 14 36
e 14 38
e 14 41
e 14 47
e 15 17
e 15 20
e 15 34
e 15 44
e 16 21
e 16 39
e 16 41
e 16 46
e 16 48
e 17 20
e 17 39
e 17 45
e 18 20
e 18 23
e 18 38
e 18 42
e 18 50
e 19 26
e 19 28
e 19 37
e 19 46
e 19 48
e 20 35
e 20 37
e 21 22
e 21 25
e 21 32
e 21 35
e 21 37
e 22 29
e 22 31
e 22 36
e 22 37
e 22 42
e 23 26
e 23 32
e 23 33
e 23 48
e 24 29
e 24 39
e 25 35
e 25 40
e 25 41
e 25 42
e 26 39
e 26 44
e 27 28
e 27 46
e 27 47
e 28 43
e 29 37
e 29 47
e 30 31
e 30 32
e 30 36
e 30 43
e 31 33
e 32 37
e 32 38
e 33 46
e 33 50
e 34 36
e 34 42
e 35 47
e 36 44
e 38 49
e 40 50
e 41 45
e 42 43
e 42 48
e 43 49
e 44 47
e 44 49
e 45 46
e 45 49
e 45 50
n 3 1
n 4 3
n 5 4
n 6 2
n 8 3
n 10 1
n 17 2
n 18 2
n 19 5
n 22 2
n 25 5
n 27 4
n 30 1
n 47 4
n 48 5
